\* Film_Festival_Schedule *\
Maximize
Total_Rating: 7.1 Showing_0 + 7.2 Showing_1 + 6.4 Showing_10 + 5.9 Showing_11
 + 7.7 Showing_12 + 6.8 Showing_13 + 7.8 Showing_14 + 7 Showing_15
 + 7.3 Showing_16 + 6.8 Showing_17 + 7.7 Showing_18 + 7.3 Showing_19
 + 7.2 Showing_2 + 7.5 Showing_20 + 7.6 Showing_3 + 7.6 Showing_4
 + 7.1 Showing_5 + 6.6 Showing_6 + 6.6 Showing_7 + 6.5 Showing_8
 + 8.1 Showing_9
Subject To
Watch_And_the_King_Said,_What_a_Fantastic_Machine_|_Fantastic_Machine_Once:
 Showing_1 <= 1
Watch_Die_Saat_|_The_Seed_Once: Showing_19 <= 1
Watch_El_sueño_de_la_Sultana_|_Sultana's_Dream_|_Sultanas_Traum_Once:
 Showing_13 <= 1
Watch_Elaha_Once: Showing_3 <= 1
Watch_Heima_er_best_|_Descendants_Once: Showing_11 <= 1
Watch_Huset_|_Prisoner_Once: Showing_4 <= 1
Watch_Ilveskuiskaaja_|_Lynx_Man_Once: Showing_14 <= 1
Watch_Nordic_Shorts_1:_Cracks_in_the_Exterior_Once: Showing_2 <= 1
Watch_Nordic_Shorts_2:_Inbetween_Once: Showing_9 <= 1
Watch_Nordic_Shorts_3:_Real_Fake_Truths_Once: Showing_15 <= 1
Watch_Norwegian_Dream_Once: Showing_6 <= 1
Watch_Omnejd_Once: Showing_5 <= 1
Watch_Poetas_|_The_Poet_Once: Showing_16 <= 1
Watch_Revir_–_En_fortælling_om_det_dyrebare_|_Revir_–_Everything_You_Hold_Dear_Once:
 Showing_17 <= 1
Watch_Sånger_från_andra_våningen_|_Songs_from_the_Second_Floor_Once:
 Showing_20 <= 1
Watch_Tillsammans_99_|_Together_99_Once: Showing_8 <= 1
Watch_Tilverur_|_Solitude_Once: Showing_18 <= 1
Watch_Titina_|_Titina_–_Ein_tierisches_Abenteuer_am_Nordpol_Once: Showing_0
 <= 1
Watch_Twice_Colonized_Once: Showing_10 <= 1
Watch_Ung_Flukt_|_The_Wayward_Girl_|_Die_jungen_Sünder_Once: Showing_7 <= 1
Watch_VR_Expanded_Once: Showing_12 <= 1
_C1: Showing_0 + Showing_1 <= 1
_C10: Showing_10 + Showing_3 <= 1
_C11: Showing_11 + Showing_3 <= 1
_C12: Showing_4 + Showing_5 <= 1
_C13: Showing_4 + Showing_6 <= 1
_C14: Showing_4 + Showing_7 <= 1
_C15: Showing_4 + Showing_8 <= 1
_C16: Showing_4 + Showing_9 <= 1
_C17: Showing_10 + Showing_4 <= 1
_C18: Showing_11 + Showing_4 <= 1
_C19: Showing_12 + Showing_4 <= 1
_C2: Showing_0 + Showing_2 <= 1
_C20: Showing_5 + Showing_6 <= 1
_C21: Showing_5 + Showing_7 <= 1
_C22: Showing_5 + Showing_8 <= 1
_C23: Showing_6 + Showing_7 <= 1
_C24: Showing_6 + Showing_8 <= 1
_C25: Showing_6 + Showing_9 <= 1
_C26: Showing_10 + Showing_6 <= 1
_C27: Showing_11 + Showing_6 <= 1
_C28: Showing_12 + Showing_6 <= 1
_C29: Showing_7 + Showing_8 <= 1
_C3: Showing_1 + Showing_2 <= 1
_C30: Showing_7 + Showing_9 <= 1
_C31: Showing_10 + Showing_7 <= 1
_C32: Showing_11 + Showing_7 <= 1
_C33: Showing_12 + Showing_7 <= 1
_C34: Showing_8 + Showing_9 <= 1
_C35: Showing_10 + Showing_8 <= 1
_C36: Showing_11 + Showing_8 <= 1
_C37: Showing_12 + Showing_8 <= 1
_C38: Showing_13 + Showing_8 <= 1
_C39: Showing_10 + Showing_9 <= 1
_C4: Showing_3 + Showing_4 <= 1
_C40: Showing_11 + Showing_9 <= 1
_C41: Showing_12 + Showing_9 <= 1
_C42: Showing_10 + Showing_11 <= 1
_C43: Showing_10 + Showing_12 <= 1
_C44: Showing_10 + Showing_13 <= 1
_C45: Showing_11 + Showing_12 <= 1
_C46: Showing_11 + Showing_13 <= 1
_C47: Showing_12 + Showing_13 <= 1
_C48: Showing_13 + Showing_14 <= 1
_C49: Showing_13 + Showing_15 <= 1
_C5: Showing_3 + Showing_5 <= 1
_C50: Showing_13 + Showing_16 <= 1
_C51: Showing_13 + Showing_17 <= 1
_C52: Showing_13 + Showing_18 <= 1
_C53: Showing_14 + Showing_15 <= 1
_C54: Showing_14 + Showing_16 <= 1
_C55: Showing_14 + Showing_17 <= 1
_C56: Showing_14 + Showing_18 <= 1
_C57: Showing_14 + Showing_19 <= 1
_C58: Showing_14 + Showing_20 <= 1
_C59: Showing_15 + Showing_16 <= 1
_C6: Showing_3 + Showing_6 <= 1
_C60: Showing_15 + Showing_17 <= 1
_C61: Showing_15 + Showing_18 <= 1
_C62: Showing_15 + Showing_19 <= 1
_C63: Showing_15 + Showing_20 <= 1
_C64: Showing_16 + Showing_17 <= 1
_C65: Showing_16 + Showing_18 <= 1
_C66: Showing_16 + Showing_19 <= 1
_C67: Showing_16 + Showing_20 <= 1
_C68: Showing_17 + Showing_18 <= 1
_C69: Showing_17 + Showing_19 <= 1
_C7: Showing_3 + Showing_7 <= 1
_C70: Showing_17 + Showing_20 <= 1
_C71: Showing_18 + Showing_19 <= 1
_C72: Showing_18 + Showing_20 <= 1
_C73: Showing_19 + Showing_20 <= 1
_C8: Showing_3 + Showing_8 <= 1
_C9: Showing_3 + Showing_9 <= 1
Binaries
Showing_0
Showing_1
Showing_10
Showing_11
Showing_12
Showing_13
Showing_14
Showing_15
Showing_16
Showing_17
Showing_18
Showing_19
Showing_2
Showing_20
Showing_3
Showing_4
Showing_5
Showing_6
Showing_7
Showing_8
Showing_9
End
